# Solution for model problem
# Objective value = 0
src_0 0
src_1 1
src_2 0
src_3 0
fft_0 1
fft_1 0
fft_2 0
fft_3 0
matrix_0 1
matrix_1 0
matrix_2 0
matrix_3 0
ifft_0 1
ifft_1 0
ifft_2 0
ifft_3 0
fir_0 1
fir_1 0
fir_2 0
fir_3 0
angle_0 1
angle_1 0
angle_2 0
angle_3 0
road_0 1
road_1 0
road_2 0
road_3 0
table_0 1
table_1 0
table_2 0
table_3 0
sink_0 1
sink_1 0
sink_2 0
sink_3 0
